Clp0006I 0  Obj 0 Primal inf 999.9999 (1000) Dual inf 6876138 (250000)
Clp0006I 200  Obj -4166267 Primal inf 304094 (1000)
Clp0006I 400  Obj -1434372 Primal inf 108897 (1000)
Clp0006I 600  Obj -26018 Primal inf 13329 (994)
Clp0006I 673  Obj -26018 Primal inf 15122 (993)
Clp0006I 793  Obj -25088 Primal inf 35843 (993)
Clp0006I 873  Obj -25088 Primal inf 30190 (993)
Clp0006I 975  Obj -25088 Primal inf 41078 (991)
Clp0006I 1082  Obj -25088 Primal inf 40014 (987)
Clp0006I 1195  Obj -25088 Primal inf 47710 (983)
Clp0006I 1301  Obj -25088 Primal inf 32751 (984)
Clp0006I 1414  Obj -25088 Primal inf 37755 (983)
Clp0006I 1527  Obj -25088 Primal inf 34182 (982)
Clp0006I 1636  Obj -25088 Primal inf 34240 (982)
Clp0006I 1751  Obj -25088 Primal inf 54710 (979)
Clp0006I 1857  Obj -25088 Primal inf 41692 (978)
Clp0006I 1962  Obj -25088 Primal inf 41678 (978)
Clp0006I 2064  Obj -25088 Primal inf 37532 (976)
Clp0006I 2175  Obj -25088 Primal inf 43470 (976)
Clp0006I 2276  Obj -25088 Primal inf 30562 (974)
Clp0006I 2384  Obj -25088 Primal inf 30439 (977)
Clp0006I 2494  Obj -25088 Primal inf 26432 (972)
Clp0006I 2607  Obj -25088 Primal inf 28249 (975)
Clp0006I 2717  Obj -25088 Primal inf 39570 (973)
Clp0006I 2817  Obj -25088 Primal inf 32370 (979)
Clp0006I 2924  Obj -25088 Primal inf 36640 (978)
Clp0006I 3030  Obj -25088 Primal inf 37351 (976)
Clp0006I 3147  Obj -25088 Primal inf 31775 (975)
Clp0006I 3267  Obj -25088 Primal inf 30480 (972)
Clp0006I 3375  Obj -25088 Primal inf 39116 (967)
Clp0006I 3468  Obj -25088 Primal inf 36909 (968)
Clp0006I 3570  Obj -25000 Primal inf 32753 (974)
Clp0006I 3668  Obj -25000 Primal inf 28035 (969)
Clp0006I 3775  Obj -25000 Primal inf 60586 (965)
Clp0006I 3867  Obj -25000 Primal inf 43318 (965)
Clp0006I 3968  Obj -25000 Primal inf 52658 (965)
Clp0006I 4076  Obj -25000 Primal inf 54377 (960)
Clp0006I 4181  Obj -25000 Primal inf 36494 (952)
Clp0006I 4285  Obj -25000 Primal inf 30790 (958)
Clp0006I 4389  Obj -25000 Primal inf 26497 (958)
Clp0006I 4499  Obj -25000 Primal inf 27723 (961)
Clp0006I 4608  Obj -25000 Primal inf 24127 (961)
Clp0006I 4709  Obj -25000 Primal inf 25011 (958)
Clp0006I 4815  Obj -25000 Primal inf 32792 (949)
Clp0006I 4909  Obj -25000 Primal inf 20410 (941)
Clp0006I 5009  Obj -25000 Primal inf 23367 (939)
Clp0006I 5113  Obj -25000 Primal inf 22604 (935)
Clp0006I 5220  Obj -25000 Primal inf 21168 (930)
Clp0006I 5321  Obj -25000 Primal inf 14270 (933)
Clp0006I 5424  Obj -25000 Primal inf 19771 (922)
Clp0006I 5522  Obj -25000 Primal inf 23750 (918)
Clp0006I 5616  Obj -25000 Primal inf 28978 (917)
Clp0006I 5713  Obj -25000 Primal inf 26125 (911)
Clp0006I 5826  Obj -25000 Primal inf 23131 (907)
Clp0006I 5927  Obj -25000 Primal inf 24561 (896)
Clp0006I 6026  Obj -25000 Primal inf 21059 (903)
Clp0006I 6129  Obj -25000 Primal inf 27432 (895)
Clp0006I 6233  Obj -25000 Primal inf 21597 (888)
Clp0006I 6343  Obj -25000 Primal inf 33538 (882)
Clp0006I 6425  Obj -25000 Primal inf 29841 (883)
Clp0006I 6535  Obj -25000 Primal inf 19825 (867)
Clp0006I 6630  Obj -25000 Primal inf 28429 (859)
Clp0006I 6722  Obj -25000 Primal inf 28421 (850)
Clp0006I 6817  Obj -25000 Primal inf 21893 (854)
Clp0006I 6908  Obj -25000 Primal inf 34048 (853)
Clp0006I 7004  Obj -25000 Primal inf 29144 (853)
Clp0006I 7103  Obj -25000 Primal inf 32660 (851)
Clp0006I 7198  Obj -25000 Primal inf 29416 (841)
Clp0006I 7307  Obj -25000 Primal inf 29006 (842)
Clp0006I 7404  Obj -25000 Primal inf 13876 (836)
Clp0006I 7511  Obj -25000 Primal inf 21923 (822)
Clp0006I 7609  Obj -25000 Primal inf 26062 (814)
Clp0006I 7697  Obj -25000 Primal inf 23914 (799)
Clp0006I 7795  Obj -25000 Primal inf 23355 (791)
Clp0006I 7891  Obj -25000 Primal inf 23668 (781)
Clp0006I 7980  Obj -25000 Primal inf 13720 (768)
Clp0006I 8067  Obj -25000 Primal inf 25043 (765)
Clp0006I 8163  Obj -25000 Primal inf 25374 (759)
Clp0006I 8258  Obj -25000 Primal inf 27349 (758)
Clp0006I 8357  Obj -25000 Primal inf 22560 (755)
Clp0006I 8461  Obj -25000 Primal inf 16573 (752)
Clp0006I 8573  Obj -25000 Primal inf 22547 (749)
Clp0006I 8672  Obj -25000 Primal inf 18871 (750)
Clp0006I 8782  Obj -25000 Primal inf 12416 (736)
Clp0006I 8892  Obj -25000 Primal inf 12023 (732)
Clp0006I 8998  Obj -25000 Primal inf 16458 (727)
Clp0006I 9111  Obj -25000 Primal inf 13923 (713)
Clp0006I 9217  Obj -25000 Primal inf 13257 (707)
Clp0006I 9305  Obj -25000 Primal inf 12189 (698)
Clp0006I 9400  Obj -25000 Primal inf 16394 (696)
Clp0006I 9490  Obj -25000 Primal inf 18851 (701)
Clp0006I 9593  Obj -25000 Primal inf 14570 (696)
Clp0006I 9692  Obj -25000 Primal inf 14339 (687)
Clp0006I 9798  Obj -25000 Primal inf 10608 (664)
Clp0006I 9887  Obj -25000 Primal inf 10841 (665)
Clp0006I 9980  Obj -25000 Primal inf 15334 (643)
Clp0006I 10070  Obj -25000 Primal inf 9276.9999 (638)
Clp0006I 10171  Obj -25000 Primal inf 12217 (641)
Clp0006I 10264  Obj -25000 Primal inf 12431 (626)
Clp0006I 10380  Obj -25000 Primal inf 11111 (623)
Clp0006I 10483  Obj -25000 Primal inf 14162 (624)
Clp0006I 10590  Obj -25000 Primal inf 9373.9999 (622)
Clp0006I 10696  Obj -25000 Primal inf 14025 (610)
Clp0006I 10790  Obj -25000 Primal inf 6185.9999 (622)
Clp0006I 10914  Obj -25000 Primal inf 4477.9999 (594)
Clp0006I 11045  Obj -25000 Primal inf 5225.9999 (561)
Clp0006I 11133  Obj -25000 Primal inf 4289.9999 (569)
Clp0006I 11242  Obj -25000 Primal inf 4827.9999 (568)
Clp0006I 11353  Obj -25000 Primal inf 4182.9999 (556)
Clp0006I 11445  Obj -25000 Primal inf 2638.9999 (553)
Clp0006I 11554  Obj -25000 Primal inf 3092.9999 (534)
Clp0006I 11641  Obj -25000 Primal inf 2811.9999 (532)
Clp0006I 11731  Obj -25000 Primal inf 1849.9999 (515)
Clp0006I 11831  Obj -25000 Primal inf 1658 (495)
Clp0006I 11942  Obj -25000 Primal inf 3134 (491)
Clp0006I 12028  Obj -25000 Primal inf 1603 (489)
Clp0006I 12124  Obj -25000 Primal inf 2241 (462)
Clp0006I 12222  Obj -25000 Primal inf 2845 (462)
Clp0006I 12309  Obj -25000 Primal inf 1219 (439)
Clp0006I 12417  Obj -25000 Primal inf 875.99996 (397)
Clp0006I 12527  Obj -25000 Primal inf 624.99996 (350)
Clp0006I 12657  Obj -25000 Primal inf 521.99997 (260)
Clp0006I 12769  Obj -25000 Primal inf 537.99998 (236)
Clp0006I 12870  Obj -25000 Primal inf 372.99998 (207)
Clp0006I 12985  Obj -25000 Primal inf 988.99998 (213)
Clp0006I 13085  Obj -25000 Primal inf 631.99998 (229)
Clp0006I 13167  Obj -25000 Primal inf 476.99998 (168)
Clp0006I 13268  Obj -25000 Primal inf 617.99998 (169)
Clp0006I 13360  Obj -25000 Primal inf 253.99999 (138)
Clp0006I 13470  Obj -25000 Primal inf 135.99999 (84)
Clp0006I 13578  Obj -25000 Primal inf 493.99999 (94)
Clp0006I 13673  Obj -25000 Primal inf 195.99999 (80)
Clp0006I 13774  Obj -25000 Primal inf 167.99999 (69)
Clp0006I 13879  Obj -25000 Primal inf 59.999996 (35)
Clp0006I 13914  Obj -25000
Clp0000I Optimal - objective value -25000
Clp0000I Optimal - objective value -25000
Node 0 depth 0 unsatisfied 0 sum 0 obj -25000 guess -25000 branching on -1
Clp0000I Optimal - objective value -25000
Cbc0004I Integer solution of -25000 found after 0 iterations and 0 nodes (32.87 seconds)
Cbc0001I Search completed - best objective -25000, took 0 iterations and 0 nodes (32.95 seconds)
Cbc0035I Maximum depth 0, 0 variables fixed on reduced cost
Clp0000I Optimal - objective value -25000
Clp0000I Optimal - objective value -25000
x_408 = 1
x_837 = 1
x_1106 = 1
x_1907 = 1
x_2087 = 1
x_2526 = 1
x_3381 = 1
x_3807 = 1
x_4273 = 1
x_4691 = 1
x_5393 = 1
x_5821 = 1
x_6205 = 1
x_6864 = 1
x_7254 = 1
x_7780 = 1
x_8233 = 1
x_8833 = 1
x_9384 = 1
x_9634 = 1
x_10237 = 1
x_10546 = 1
x_11389 = 1
x_11781 = 1
x_12216 = 1
x_12742 = 1
x_13387 = 1
x_13954 = 1
x_14459 = 1
x_14712 = 1
x_15110 = 1
x_15654 = 1
x_16383 = 1
x_16937 = 1
x_17478 = 1
x_17885 = 1
x_18401 = 1
x_18777 = 1
x_19082 = 1
x_19732 = 1
x_20156 = 1
x_20745 = 1
x_21109 = 1
x_21894 = 1
x_22150 = 1
x_22936 = 1
x_23442 = 1
x_23792 = 1
x_24034 = 1
x_24779 = 1
x_25450 = 1
x_25735 = 1
x_26329 = 1
x_26703 = 1
x_27152 = 1
x_27863 = 1
x_28432 = 1
x_28849 = 1
x_29410 = 1
x_29700 = 1
x_30263 = 1
x_30746 = 1
x_31282 = 1
x_31711 = 1
x_32076 = 1
x_32757 = 1
x_33345 = 1
x_33862 = 1
x_34262 = 1
x_34785 = 1
x_35224 = 1
x_35840 = 1
x_36094 = 1
x_36721 = 1
x_37052 = 1
x_37751 = 1
x_38444 = 1
x_38850 = 1
x_39201 = 1
x_39938 = 1
x_40116 = 1
x_40753 = 1
x_41119 = 1
x_41750 = 1
x_42067 = 1
x_42867 = 1
x_43464 = 1
x_43598 = 1
x_44326 = 1
x_44912 = 1
x_45196 = 1
x_45870 = 1
x_46288 = 1
x_46586 = 1
x_47218 = 1
x_47939 = 1
x_48241 = 1
x_48511 = 1
x_49127 = 1
x_49803 = 1
x_50301 = 1
x_50727 = 1
x_51142 = 1
x_51916 = 1
x_52022 = 1
x_52662 = 1
x_53172 = 1
x_53663 = 1
x_54115 = 1
x_54671 = 1
x_55315 = 1
x_55697 = 1
x_56178 = 1
x_56572 = 1
x_57032 = 1
x_57791 = 1
x_58153 = 1
x_58575 = 1
x_59014 = 1
x_59533 = 1
x_60071 = 1
x_60946 = 1
x_61001 = 1
x_61668 = 1
x_62028 = 1
x_62645 = 1
x_63248 = 1
x_63766 = 1
x_64259 = 1
x_64541 = 1
x_65060 = 1
x_65814 = 1
x_66239 = 1
x_66698 = 1
x_67018 = 1
x_67844 = 1
x_68485 = 1
x_68825 = 1
x_69260 = 1
x_69675 = 1
x_70336 = 1
x_70504 = 1
x_71240 = 1
x_71730 = 1
x_72222 = 1
x_72500 = 1
x_73036 = 1
x_73667 = 1
x_74274 = 1
x_74756 = 1
x_75084 = 1
x_75729 = 1
x_76323 = 1
x_76673 = 1
x_77040 = 1
x_77975 = 1
x_78097 = 1
x_78643 = 1
x_79199 = 1
x_79725 = 1
x_80357 = 1
x_80808 = 1
x_81139 = 1
x_81888 = 1
x_82330 = 1
x_82852 = 1
x_83017 = 1
x_83765 = 1
x_84130 = 1
x_84892 = 1
x_85066 = 1
x_85810 = 1
x_86174 = 1
x_86921 = 1
x_87448 = 1
x_87905 = 1
x_88188 = 1
x_88537 = 1
x_89309 = 1
x_89940 = 1
x_90165 = 1
x_90618 = 1
x_91247 = 1
x_91637 = 1
x_92079 = 1
x_92935 = 1
x_93180 = 1
x_93922 = 1
x_94183 = 1
x_94568 = 1
x_95019 = 1
x_95505 = 1
x_96327 = 1
x_96991 = 1
x_97252 = 1
x_97865 = 1
x_98343 = 1
x_98723 = 1
x_99244 = 1
x_99507 = 1
x_100298 = 1
x_100761 = 1
x_101148 = 1
x_101581 = 1
x_102312 = 1
x_102720 = 1
x_103158 = 1
x_103595 = 1
x_104169 = 1
x_104820 = 1
x_105123 = 1
x_105633 = 1
x_106270 = 1
x_106687 = 1
x_107193 = 1
x_107734 = 1
x_108284 = 1
x_108891 = 1
x_109202 = 1
x_109677 = 1
x_110128 = 1
x_110527 = 1
x_111287 = 1
x_111599 = 1
x_112306 = 1
x_112923 = 1
x_113294 = 1
x_113635 = 1
x_114302 = 1
x_114649 = 1
x_115353 = 1
x_115607 = 1
x_116166 = 1
x_116570 = 1
x_117275 = 1
x_117523 = 1
x_118368 = 1
x_118799 = 1
x_119231 = 1
x_119638 = 1
x_120054 = 1
x_120872 = 1
x_121317 = 1
x_121651 = 1
x_122157 = 1
x_122728 = 1
x_123305 = 1
x_123764 = 1
x_124078 = 1
x_124573 = 1
x_125358 = 1
x_125625 = 1
x_126058 = 1
x_126854 = 1
x_127278 = 1
x_127549 = 1
x_128030 = 1
x_128828 = 1
x_129129 = 1
x_129949 = 1
x_130064 = 1
x_130508 = 1
x_131267 = 1
x_131670 = 1
x_132002 = 1
x_132895 = 1
x_133219 = 1
x_133743 = 1
x_134213 = 1
x_134890 = 1
x_135185 = 1
x_135550 = 1
x_136053 = 1
x_136758 = 1
x_137443 = 1
x_137548 = 1
x_138080 = 1
x_138655 = 1
x_139100 = 1
x_139608 = 1
x_140338 = 1
x_140947 = 1
x_141043 = 1
x_141631 = 1
x_142297 = 1
x_142694 = 1
x_143373 = 1
x_143755 = 1
x_144111 = 1
x_144563 = 1
x_145102 = 1
x_145591 = 1
x_146012 = 1
x_146876 = 1
x_147319 = 1
x_147539 = 1
x_148215 = 1
x_148516 = 1
x_149124 = 1
x_149692 = 1
x_150208 = 1
x_150793 = 1
x_151276 = 1
x_151644 = 1
x_152044 = 1
x_152980 = 1
x_153092 = 1
x_153911 = 1
x_154334 = 1
x_154555 = 1
x_155164 = 1
x_155930 = 1
x_156339 = 1
x_156925 = 1
x_157495 = 1
x_157531 = 1
x_158013 = 1
x_158538 = 1
x_159374 = 1
x_159551 = 1
x_160096 = 1
x_160679 = 1
x_161113 = 1
x_161790 = 1
x_162356 = 1
x_162955 = 1
x_163006 = 1
x_163503 = 1
x_164318 = 1
x_164520 = 1
x_165141 = 1
x_165848 = 1
x_166271 = 1
x_166963 = 1
x_167126 = 1
x_167682 = 1
x_168424 = 1
x_168605 = 1
x_169186 = 1
x_169585 = 1
x_170296 = 1
x_170772 = 1
x_171418 = 1
x_171789 = 1
x_172077 = 1
x_172515 = 1
x_173160 = 1
x_173590 = 1
x_174101 = 1
x_174617 = 1
x_175069 = 1
x_175547 = 1
x_176103 = 1
x_176521 = 1
x_177496 = 1
x_177529 = 1
x_178209 = 1
x_178842 = 1
x_179159 = 1
x_179542 = 1
x_180300 = 1
x_180786 = 1
x_181269 = 1
x_181593 = 1
x_182419 = 1
x_182875 = 1
x_183434 = 1
x_183926 = 1
x_184088 = 1
x_184565 = 1
x_185497 = 1
x_185559 = 1
x_186347 = 1
x_186510 = 1
x_187313 = 1
x_187962 = 1
x_188140 = 1
x_188545 = 1
x_189189 = 1
x_189717 = 1
x_190120 = 1
x_190574 = 1
x_191206 = 1
x_191804 = 1
x_192322 = 1
x_192714 = 1
x_193341 = 1
x_193987 = 1
x_194176 = 1
x_194738 = 1
x_195132 = 1
x_195988 = 1
x_196035 = 1
x_196886 = 1
x_197249 = 1
x_197622 = 1
x_198415 = 1
x_198690 = 1
x_199210 = 1
x_199970 = 1
x_200062 = 1
x_200583 = 1
x_201398 = 1
x_201965 = 1
x_202283 = 1
x_202832 = 1
x_203114 = 1
x_203951 = 1
x_204404 = 1
x_204604 = 1
x_205431 = 1
x_205636 = 1
x_206469 = 1
x_206704 = 1
x_207161 = 1
x_207726 = 1
x_208399 = 1
x_208811 = 1
x_209184 = 1
x_209880 = 1
x_210009 = 1
x_210927 = 1
x_211146 = 1
x_211561 = 1
x_212483 = 1
x_212956 = 1
x_213473 = 1
x_213831 = 1
x_214457 = 1
x_214647 = 1
x_215025 = 1
x_215861 = 1
x_216335 = 1
x_216524 = 1
x_217379 = 1
x_217681 = 1
x_218490 = 1
x_218736 = 1
x_219403 = 1
x_219994 = 1
x_220207 = 1
x_220866 = 1
x_221468 = 1
x_221556 = 1
x_222382 = 1
x_222878 = 1
x_223396 = 1
x_223824 = 1
x_224458 = 1
x_224945 = 1
x_225417 = 1
x_225795 = 1
x_226360 = 1
x_226976 = 1
x_227413 = 1
x_227816 = 1
x_228377 = 1
x_228855 = 1
x_229351 = 1
x_229971 = 1
x_230359 = 1
x_230977 = 1
x_231499 = 1
x_231897 = 1
x_232414 = 1
x_232986 = 1
x_233409 = 1
x_233966 = 1
x_234121 = 1
x_234869 = 1
x_235482 = 1
x_235920 = 1
x_236371 = 1
x_236902 = 1
x_237428 = 1
x_237972 = 1
x_238489 = 1
x_238929 = 1
x_239492 = 1
x_239984 = 1
x_240452 = 1
x_240900 = 1
x_241493 = 1
x_241998 = 1
x_242346 = 1
x_242941 = 1
x_243433 = 1
x_243557 = 1
x_244268 = 1
x_244953 = 1
x_245460 = 1
x_245979 = 1
x_246112 = 1
x_246589 = 1
x_247474 = 1
x_247695 = 1
x_248461 = 1
x_248981 = 1
x_249467 = 1
x_249906 = 1
real 0m34,261s user 0m34,042s sys 0m0,176s
